GLPSOL: GLPK LP/MIP Solver, v4.65
Parameter(s) specified in the command line:
 --model solver_drone.mod --data solver_drone_data_40.dat --output solver_drone_solution_40_8.log
 --log solver_drone_cmd_output_40_8.log --tmlim 60
Reading model section from solver_drone.mod...
41 lines were read
Reading data section from solver_drone_data_40.dat...
117 lines were read
Generating f...
Generating package_deliverd_once...
Generating package_well_delivered...
Generating time_spent_flying...
Generating autonomy_not_exceeded...
Generating check_time_max...
Model has been successfully generated
GLPK Integer Optimizer, v4.65
21467 rows, 21329 columns, 64505 non-zeros
21329 integer variables, 21320 of which are binary
Preprocessing...
146 rows, 21329 columns, 43184 non-zeros
21329 integer variables, 21320 of which are binary
Scaling...
 A: min|aij| =  1.000e+00  max|aij| =  1.428e+03  ratio =  1.428e+03
GM: min|aij| =  4.788e-01  max|aij| =  2.089e+00  ratio =  4.362e+00
EQ: min|aij| =  2.293e-01  max|aij| =  1.000e+00  ratio =  4.362e+00
2N: min|aij| =  1.484e-01  max|aij| =  1.000e+00  ratio =  6.737e+00
Constructing initial basis...
Size of triangular part is 146
Solving LP relaxation...
GLPK Simplex Optimizer, v4.65
146 rows, 21329 columns, 43184 non-zeros
      0: obj =   0.000000000e+00 inf =   1.195e+03 (1)
    208: obj =   4.780000000e+03 inf =   4.239e-13 (0) 1
*   273: obj =   4.780000000e+03 inf =   4.239e-13 (0)
OPTIMAL LP SOLUTION FOUND
Integer optimization begins...
Long-step dual simplex will be used
+   273: mip =     not found yet >=              -inf        (1; 0)
+  2085: >>>>>   5.428000000e+03 >=   4.780000000e+03  11.9% (122; 0)
+  3663: >>>>>   5.396000000e+03 >=   4.780000000e+03  11.4% (200; 36)
+  5477: >>>>>   5.048000000e+03 >=   4.780000000e+03   5.3% (285; 119)
+  6272: >>>>>   4.976000000e+03 >=   4.780000000e+03   3.9% (276; 330)
+  7220: >>>>>   4.816000000e+03 >=   4.780000000e+03   0.7% (275; 442)
+  9508: mip =   4.816000000e+03 >=   4.780000000e+03   0.7% (464; 559)
+ 11368: mip =   4.816000000e+03 >=   4.780000000e+03   0.7% (679; 567)
+ 13680: >>>>>   4.812000000e+03 >=   4.780000000e+03   0.7% (892; 572)
+ 15839: mip =   4.812000000e+03 >=   4.780000000e+03   0.7% (1088; 681)
+ 16796: >>>>>   4.804000000e+03 >=   4.780000000e+03   0.5% (1177; 686)
+ 17931: >>>>>   4.800000000e+03 >=   4.780000000e+03   0.4% (1166; 1000)
+ 20137: mip =   4.800000000e+03 >=   4.780000000e+03   0.4% (1095; 1570)
+ 21851: mip =   4.800000000e+03 >=   4.780000000e+03   0.4% (1305; 1596)
+ 22540: >>>>>   4.796000000e+03 >=   4.780000000e+03   0.3% (1387; 1605)
+ 24605: mip =   4.796000000e+03 >=   4.780000000e+03   0.3% (1522; 1748)
+ 25825: mip =   4.796000000e+03 >=   4.780000000e+03   0.3% (1641; 1783)
Time used: 60.0 secs.  Memory used: 40.7 Mb.
+ 27034: mip =   4.796000000e+03 >=   4.780000000e+03   0.3% (1733; 1833)
TIME LIMIT EXCEEDED; SEARCH TERMINATED
Time used:   60.2 secs
Memory used: 41.6 Mb (43574406 bytes)
The package 1 is delivered by the drone 3 to the house 1
The package 2 is delivered by the drone 6 to the house 1
The package 3 is delivered by the drone 1 to the house 2
The package 4 is delivered by the drone 2 to the house 2
The package 5 is delivered by the drone 3 to the house 4
The package 6 is delivered by the drone 3 to the house 4
The package 7 is delivered by the drone 1 to the house 4
The package 8 is delivered by the drone 7 to the house 7
The package 9 is delivered by the drone 8 to the house 7
The package 10 is delivered by the drone 8 to the house 8
The package 11 is delivered by the drone 2 to the house 8
The package 12 is delivered by the drone 8 to the house 8
The package 13 is delivered by the drone 1 to the house 9
The package 14 is delivered by the drone 6 to the house 9
The package 15 is delivered by the drone 8 to the house 10
The package 16 is delivered by the drone 3 to the house 10
The package 17 is delivered by the drone 7 to the house 10
The package 18 is delivered by the drone 7 to the house 12
The package 19 is delivered by the drone 6 to the house 12
The package 20 is delivered by the drone 5 to the house 12
The package 21 is delivered by the drone 5 to the house 13
The package 22 is delivered by the drone 2 to the house 13
The package 23 is delivered by the drone 1 to the house 13
The package 24 is delivered by the drone 8 to the house 15
The package 25 is delivered by the drone 6 to the house 16
The package 26 is delivered by the drone 8 to the house 16
The package 27 is delivered by the drone 3 to the house 17
The package 28 is delivered by the drone 6 to the house 18
The package 29 is delivered by the drone 7 to the house 19
The package 30 is delivered by the drone 1 to the house 19
The package 31 is delivered by the drone 1 to the house 19
The package 32 is delivered by the drone 4 to the house 20
The package 33 is delivered by the drone 6 to the house 21
The package 34 is delivered by the drone 4 to the house 22
The package 35 is delivered by the drone 4 to the house 23
The package 36 is delivered by the drone 4 to the house 23
The package 37 is delivered by the drone 2 to the house 23
The package 38 is delivered by the drone 7 to the house 24
The package 39 is delivered by the drone 3 to the house 24
The package 40 is delivered by the drone 4 to the house 24
The package 41 is delivered by the drone 2 to the house 27
The package 42 is delivered by the drone 6 to the house 27
The package 43 is delivered by the drone 5 to the house 28
The package 44 is delivered by the drone 3 to the house 28
The package 45 is delivered by the drone 6 to the house 28
The package 46 is delivered by the drone 4 to the house 29
The package 47 is delivered by the drone 2 to the house 29
The package 48 is delivered by the drone 1 to the house 29
The package 49 is delivered by the drone 2 to the house 30
The package 50 is delivered by the drone 4 to the house 30
The package 51 is delivered by the drone 8 to the house 32
The package 52 is delivered by the drone 8 to the house 32
The package 53 is delivered by the drone 8 to the house 32
The package 54 is delivered by the drone 4 to the house 33
The package 55 is delivered by the drone 7 to the house 33
The package 56 is delivered by the drone 5 to the house 33
The package 57 is delivered by the drone 2 to the house 34
The package 58 is delivered by the drone 5 to the house 34
The package 59 is delivered by the drone 2 to the house 35
The package 60 is delivered by the drone 5 to the house 35
The package 61 is delivered by the drone 1 to the house 37
The package 62 is delivered by the drone 7 to the house 37
The package 63 is delivered by the drone 5 to the house 38
The package 64 is delivered by the drone 4 to the house 38
The package 65 is delivered by the drone 1 to the house 38
Model has been successfully processed
Writing MIP solution to 'solver_drone_solution_40_8.log'...
